p cnf 50 10
x 1 -3 4 -5 6 9 12 -14 -15 -16 -18 -19 23 -24 -26 27 28 -29 31 32 -34 35 -37 -39 41 -42 -43 44 46 47 48 -49 50 0
x -2 5 -6 -8 -10 -13 -20 -21 24 25 -26 29 -30 33 -36 -38 -39 -42 44 -45 47 -48 -49 0
x -1 4 -5 -7 10 -12 17 18 19 -20 -22 -23 24 25 26 -27 28 29 -30 31 34 -37 42 -44 45 -48 -50 0
x -2 -5 6 8 -10 11 18 -20 23 24 -25 -28 29 -30 31 -38 -39 -41 42 43 -44 46 -49 -50 0
x 6 -8 -9 13 17 23 25 -29 -31 32 33 -34 37 38 49 50 0
x 1 3 -4 -7 -8 -9 11 12 14 15 -19 -20 -21 23 25 -27 -29 34 35 37 40 -41 -43 44 49 -50 0
x 2 -5 6 -10 11 12 -15 -16 -17 22 -24 -26 -27 30 -33 -36 38 -39 40 42 43 -44 -45 47 -48 0
x -1 5 -6 7 -12 -13 14 -15 19 -20 -21 -22 23 24 -25 26 28 29 30 -31 32 33 34 -35 -36 -37 39 40 41 -43 44 46 47 48 49 0
x 1 -4 -6 7 -8 -12 -13 -14 15 16 -19 -21 -22 23 -26 28 32 -37 -38 -39 -41 -42 43 44 46 0
x 3 -4 6 -7 -8 -10 -11 14 -17 21 -22 -23 -24 -25 27 28 30 31 -33 34 35 37 -38 -39 40 -43 44 -46 -48 0
g -10